datasets/2-dimensional/CL_08_25_10.vbp
2
150 150 
25
53 63 30
45 70 72
65 46 4
23 95 88
97 19 54
91 25 64
77 38 90
73 39 26
42 75 94
56 62 28
53 60 72
77 37 49
40 77 54
38 72 19
38 78 28
28 83 61
28 85 84
82 32 23
21 89 67
23 88 53
52 65 54
99 17 16
22 92 9
26 90 54
21 95 77
