datasets/2-dimensional-benchmark/CL_08_25_10.txt
150 150 
0 30 53 63 
1 72 45 70 
2 4 65 46 
3 88 23 95 
4 54 97 19 
5 64 91 25 
6 90 77 38 
7 26 73 39 
8 94 42 75 
9 28 56 62 
10 72 53 60 
11 49 77 37 
12 54 40 77 
13 19 38 72 
14 28 38 78 
15 61 28 83 
16 84 28 85 
17 23 82 32 
18 67 21 89 
19 53 23 88 
20 54 52 65 
21 16 99 17 
22 9 22 92 
23 54 26 90 
24 77 21 95 
